StudentsNr = 10;
InstructorsNr = 35;
DaysNr = 2;
SlotsPerDay = 10;
AvailabilitySlotsLenght = 10;
RoomNr = 2;
ProgrammNr = 1;
DegreeNr = 2;
RolesNr = 4;
CoursesNr = 2;
InstructorsProgramm = [{1}, {1}, {1}, {1}, {1}, {1}, {1}, {1}, {1}, {1}, {1}, {1}, {1}, {1}, {1}, {1}, {1}, {1}, {1}, {1}, {1}, {1}, {1}, {1}, {1}, {1}, {1}, {1}, {1}, {1}, {1}, {1}, {1}, {1}, {1}];
InstructorRolesPerProgramm = [|{8, 11, 12, 15, 20, 21, 30, 34}, {6, 14, 15, 21, 22, 23, 24, 25, 28, 30, 34}, {5, 11, 14, 15, 17, 18, 20, 21, 23, 25, 27, 30, 31, 33}, {5, 6, 9, 10, 12, 16, 17, 22, 28, 32, 33, 35}|];
InstructorsAvailability = [|1, 1, |0, 1, |0, 0, |0, 0, |0, 0, |1, 1, |1, 1, |0, 1, |0, 1, |1, 1, |1, 1, |0, 1, |1, 1, |0, 1, |1, 1, |1, 1, |1, 1, |1, 1, |0, 1, |1, 1, |1, 1, |1, 1, |0, 0, |1, 0, |0, 1, |0, 1, |0, 1, |0, 1, |0, 0, |1, 1, |0, 1, |0, 1, |0, 1, |0, 1, |0, 1|];
StudentsProgramm = [1, 1, 1, 1, 1, 1, 1, 1, 1, 1];
StudentsDegree = [2, 2, 1, 1, 1, 2, 2, 2, 2, 1];
StudentsSupervisorId = [33, 26, 21, 30, 30, 25, 24, 10, 29, 20];
StudentsCourseIds = [{1}, {1}, {2}, {1}, {1}, {1}, {1}, {2}, {2}, {2}];
StudentsAvailability = [|1, 1, |0, 0, |0, 0, |0, 0, |0, 0, |1, 1, |0, 0, |1, 1, |1, 1, |0, 0|];
TheoryticalMinCard = [0, 1, 0, 0, 0, 0, 0, 0, 1, 0];
CoursesInstructorIds = [{4, 6, 9, 10, 11, 23, 25, 33}, {32}];
RolesDemands = [4, 11, 2, 12];
RolesContinuity = [3, 2, 4];
ExamLen = [2, 2, 2, 2, 2, 2, 2, 2, 2, 2];
LunchTsMinLen = 1;
LunchStarts = [2..6, 13..16];
SupervisorAvailable = 5;
OptimalLunchLenght = [2, 1];
OptimalStartTs = [1, 1];
OptimalFinishTs = [0, 9];
MinimizeRooms = 200;
RolesSoftContinuity = [|1, 2, 3, 4|2, 0, 0, 1|];
SameDegreeInRoom = 10;
Mergeability = 0;
